
Gurobi 9.1.2 (win64, Java) logging started Tue Nov  9 15:34:35 2021

Academic license - for non-commercial use only - expires 2022-10-30
Gurobi Optimizer version 9.1.2 build v9.1.2rc0 (win64)
Thread count: 6 physical cores, 12 logical processors, using up to 12 threads
Optimize a model with 450 rows, 45000 columns and 90000 nonzeros
Model fingerprint: 0xb79942bb
Variable types: 0 continuous, 45000 integer (45000 binary)
Coefficient statistics:
  Matrix range     [1e+00, 1e+03]
  Objective range  [1e+00, 1e+03]
  Bounds range     [1e+00, 1e+00]
  RHS range        [1e+00, 2e+03]
Found heuristic solution: objective 89797.000000
Presolve removed 117 rows and 21932 columns
Presolve time: 0.42s
Presolved: 333 rows, 23068 columns, 46064 nonzeros
Variable types: 0 continuous, 23068 integer (23068 binary)
Presolve removed 0 rows and 69 columns
Presolved: 333 rows, 22999 columns, 45995 nonzeros


Root relaxation: objective 9.149494e+04, 351 iterations, 0.02 seconds

    Nodes    |    Current Node    |     Objective Bounds      |     Work
 Expl Unexpl |  Obj  Depth IntInf | Incumbent    BestBd   Gap | It/Node Time

     0     0 91494.9424    0    1 89797.0000 91494.9424  1.89%     -    0s
H    0     0                    91087.000000 91494.9424  0.45%     -    0s
H    0     0                    91138.000000 91494.9424  0.39%     -    0s
H    0     0                    91232.000000 91494.9424  0.29%     -    0s

Explored 1 nodes (3739 simplex iterations) in 0.76 seconds
Thread count was 12 (of 12 available processors)

Solution count 4: 91232 91138 91087 89797 

Optimal solution found (tolerance 1.00e-04)
Best objective 9.123200000000e+04, best bound 9.123700000000e+04, gap 0.0055%

Gurobi 9.1.2 (win64, Java) logging started Tue Nov  9 15:35:36 2021

Academic license - for non-commercial use only - expires 2022-10-30
Gurobi Optimizer version 9.1.2 build v9.1.2rc0 (win64)
Thread count: 6 physical cores, 12 logical processors, using up to 12 threads
Optimize a model with 450 rows, 45000 columns and 90000 nonzeros
Model fingerprint: 0xb79942bb
Variable types: 0 continuous, 45000 integer (45000 binary)
Coefficient statistics:
  Matrix range     [1e+00, 1e+03]
  Objective range  [1e+00, 1e+03]
  Bounds range     [1e+00, 1e+00]
  RHS range        [1e+00, 2e+03]
Found heuristic solution: objective 89797.000000
Presolve removed 117 rows and 21932 columns
Presolve time: 0.38s
Presolved: 333 rows, 23068 columns, 46064 nonzeros
Variable types: 0 continuous, 23068 integer (23068 binary)
Presolve removed 0 rows and 69 columns
Presolved: 333 rows, 22999 columns, 45995 nonzeros


Root relaxation: objective 9.149494e+04, 351 iterations, 0.02 seconds

    Nodes    |    Current Node    |     Objective Bounds      |     Work
 Expl Unexpl |  Obj  Depth IntInf | Incumbent    BestBd   Gap | It/Node Time

     0     0 91494.9424    0    1 89797.0000 91494.9424  1.89%     -    0s
H    0     0                    91087.000000 91494.9424  0.45%     -    0s
H    0     0                    91138.000000 91494.9424  0.39%     -    0s
H    0     0                    91232.000000 91494.9424  0.29%     -    0s

Explored 1 nodes (3739 simplex iterations) in 0.70 seconds
Thread count was 12 (of 12 available processors)

Solution count 4: 91232 91138 91087 89797 

Optimal solution found (tolerance 1.00e-04)
Best objective 9.123200000000e+04, best bound 9.123700000000e+04, gap 0.0055%
